(set-logic QF_S)
(declare-fun var0 () String)
(declare-fun var1 () String)
(declare-fun var2 () String)
(declare-fun var3 () Int)
(declare-fun var4 () Int)
(declare-fun var5 () Int)
(declare-fun var6 () Bool)
(declare-fun var7 () Bool)
(declare-fun var8 () Bool)
(assert (str.in.re var2 re.allchar))
(assert (str.contains (str.replace (str.substr var1 var5 var5) (str.substr var2 3 var4) (str.substr var0 var5 var3)) (str.substr (str.replace var1 var0 var2) (str.indexof var0 var2 var3) (str.len var0))))
(assert (str.contains (str.at (str.replace var0 var1 var1) (str.indexof var1 var2 4)) (str.at (str.replace "*$'b9^7u?g" var2 var2) (str.len var1))))
(assert (str.prefixof (str.at (str.substr var1 8 var3) (str.len var0)) (str.replace var0 var1 var1)))
(check-sat)